c description: Tseitin formula on , with even charge
c generator: CNFgen (0.9.0)
c copyright: (C) 2012-2020 Massimo Lauria <massimo.lauria@uniroma1.it>
c url: https://massimolauria.net/cnfgen
c
p cnf 30 508
1 2 3 4 5 6 7 -8 0
1 2 3 4 5 6 -7 8 0
1 2 3 4 5 -6 7 8 0
1 2 3 4 5 -6 -7 -8 0
1 2 3 4 -5 6 7 8 0
1 2 3 4 -5 6 -7 -8 0
1 2 3 4 -5 -6 7 -8 0
1 2 3 4 -5 -6 -7 8 0
1 2 3 -4 5 6 7 8 0
1 2 3 -4 5 6 -7 -8 0
1 2 3 -4 5 -6 7 -8 0
1 2 3 -4 5 -6 -7 8 0
1 2 3 -4 -5 6 7 -8 0
1 2 3 -4 -5 6 -7 8 0
1 2 3 -4 -5 -6 7 8 0
1 2 3 -4 -5 -6 -7 -8 0
1 2 -3 4 5 6 7 8 0
1 2 -3 4 5 6 -7 -8 0
1 2 -3 4 5 -6 7 -8 0
1 2 -3 4 5 -6 -7 8 0
1 2 -3 4 -5 6 7 -8 0
1 2 -3 4 -5 6 -7 8 0
1 2 -3 4 -5 -6 7 8 0
1 2 -3 4 -5 -6 -7 -8 0
1 2 -3 -4 5 6 7 -8 0
1 2 -3 -4 5 6 -7 8 0
1 2 -3 -4 5 -6 7 8 0
1 2 -3 -4 5 -6 -7 -8 0
1 2 -3 -4 -5 6 7 8 0
1 2 -3 -4 -5 6 -7 -8 0
1 2 -3 -4 -5 -6 7 -8 0
1 2 -3 -4 -5 -6 -7 8 0
1 -2 3 4 5 6 7 8 0
1 -2 3 4 5 6 -7 -8 0
1 -2 3 4 5 -6 7 -8 0
1 -2 3 4 5 -6 -7 8 0
1 -2 3 4 -5 6 7 -8 0
1 -2 3 4 -5 6 -7 8 0
1 -2 3 4 -5 -6 7 8 0
1 -2 3 4 -5 -6 -7 -8 0
1 -2 3 -4 5 6 7 -8 0
1 -2 3 -4 5 6 -7 8 0
1 -2 3 -4 5 -6 7 8 0
1 -2 3 -4 5 -6 -7 -8 0
1 -2 3 -4 -5 6 7 8 0
1 -2 3 -4 -5 6 -7 -8 0
1 -2 3 -4 -5 -6 7 -8 0
1 -2 3 -4 -5 -6 -7 8 0
1 -2 -3 4 5 6 7 -8 0
1 -2 -3 4 5 6 -7 8 0
1 -2 -3 4 5 -6 7 8 0
1 -2 -3 4 5 -6 -7 -8 0
1 -2 -3 4 -5 6 7 8 0
1 -2 -3 4 -5 6 -7 -8 0
1 -2 -3 4 -5 -6 7 -8 0
1 -2 -3 4 -5 -6 -7 8 0
1 -2 -3 -4 5 6 7 8 0
1 -2 -3 -4 5 6 -7 -8 0
1 -2 -3 -4 5 -6 7 -8 0
1 -2 -3 -4 5 -6 -7 8 0
1 -2 -3 -4 -5 6 7 -8 0
1 -2 -3 -4 -5 6 -7 8 0
1 -2 -3 -4 -5 -6 7 8 0
1 -2 -3 -4 -5 -6 -7 -8 0
-1 2 3 4 5 6 7 8 0
-1 2 3 4 5 6 -7 -8 0
-1 2 3 4 5 -6 7 -8 0
-1 2 3 4 5 -6 -7 8 0
-1 2 3 4 -5 6 7 -8 0
-1 2 3 4 -5 6 -7 8 0
-1 2 3 4 -5 -6 7 8 0
-1 2 3 4 -5 -6 -7 -8 0
-1 2 3 -4 5 6 7 -8 0
-1 2 3 -4 5 6 -7 8 0
-1 2 3 -4 5 -6 7 8 0
-1 2 3 -4 5 -6 -7 -8 0
-1 2 3 -4 -5 6 7 8 0
-1 2 3 -4 -5 6 -7 -8 0
-1 2 3 -4 -5 -6 7 -8 0
-1 2 3 -4 -5 -6 -7 8 0
-1 2 -3 4 5 6 7 -8 0
-1 2 -3 4 5 6 -7 8 0
-1 2 -3 4 5 -6 7 8 0
-1 2 -3 4 5 -6 -7 -8 0
-1 2 -3 4 -5 6 7 8 0
-1 2 -3 4 -5 6 -7 -8 0
-1 2 -3 4 -5 -6 7 -8 0
-1 2 -3 4 -5 -6 -7 8 0
-1 2 -3 -4 5 6 7 8 0
-1 2 -3 -4 5 6 -7 -8 0
-1 2 -3 -4 5 -6 7 -8 0
-1 2 -3 -4 5 -6 -7 8 0
-1 2 -3 -4 -5 6 7 -8 0
-1 2 -3 -4 -5 6 -7 8 0
-1 2 -3 -4 -5 -6 7 8 0
-1 2 -3 -4 -5 -6 -7 -8 0
-1 -2 3 4 5 6 7 -8 0
-1 -2 3 4 5 6 -7 8 0
-1 -2 3 4 5 -6 7 8 0
-1 -2 3 4 5 -6 -7 -8 0
-1 -2 3 4 -5 6 7 8 0
-1 -2 3 4 -5 6 -7 -8 0
-1 -2 3 4 -5 -6 7 -8 0
-1 -2 3 4 -5 -6 -7 8 0
-1 -2 3 -4 5 6 7 8 0
-1 -2 3 -4 5 6 -7 -8 0
-1 -2 3 -4 5 -6 7 -8 0
-1 -2 3 -4 5 -6 -7 8 0
-1 -2 3 -4 -5 6 7 -8 0
-1 -2 3 -4 -5 6 -7 8 0
-1 -2 3 -4 -5 -6 7 8 0
-1 -2 3 -4 -5 -6 -7 -8 0
-1 -2 -3 4 5 6 7 8 0
-1 -2 -3 4 5 6 -7 -8 0
-1 -2 -3 4 5 -6 7 -8 0
-1 -2 -3 4 5 -6 -7 8 0
-1 -2 -3 4 -5 6 7 -8 0
-1 -2 -3 4 -5 6 -7 8 0
-1 -2 -3 4 -5 -6 7 8 0
-1 -2 -3 4 -5 -6 -7 -8 0
-1 -2 -3 -4 5 6 7 -8 0
-1 -2 -3 -4 5 6 -7 8 0
-1 -2 -3 -4 5 -6 7 8 0
-1 -2 -3 -4 5 -6 -7 -8 0
-1 -2 -3 -4 -5 6 7 8 0
-1 -2 -3 -4 -5 6 -7 -8 0
-1 -2 -3 -4 -5 -6 7 -8 0
-1 -2 -3 -4 -5 -6 -7 8 0
1 9 10 11 12 -13 0
1 9 10 11 -12 13 0
1 9 10 -11 12 13 0
1 9 10 -11 -12 -13 0
1 9 -10 11 12 13 0
1 9 -10 11 -12 -13 0
1 9 -10 -11 12 -13 0
1 9 -10 -11 -12 13 0
1 -9 10 11 12 13 0
1 -9 10 11 -12 -13 0
1 -9 10 -11 12 -13 0
1 -9 10 -11 -12 13 0
1 -9 -10 11 12 -13 0
1 -9 -10 11 -12 13 0
1 -9 -10 -11 12 13 0
1 -9 -10 -11 -12 -13 0
-1 9 10 11 12 13 0
-1 9 10 11 -12 -13 0
-1 9 10 -11 12 -13 0
-1 9 10 -11 -12 13 0
-1 9 -10 11 12 -13 0
-1 9 -10 11 -12 13 0
-1 9 -10 -11 12 13 0
-1 9 -10 -11 -12 -13 0
-1 -9 10 11 12 -13 0
-1 -9 10 11 -12 13 0
-1 -9 10 -11 12 13 0
-1 -9 10 -11 -12 -13 0
-1 -9 -10 11 12 13 0
-1 -9 -10 11 -12 -13 0
-1 -9 -10 -11 12 -13 0
-1 -9 -10 -11 -12 13 0
2 9 14 15 16 -17 0
2 9 14 15 -16 17 0
2 9 14 -15 16 17 0
2 9 14 -15 -16 -17 0
2 9 -14 15 16 17 0
2 9 -14 15 -16 -17 0
2 9 -14 -15 16 -17 0
2 9 -14 -15 -16 17 0
2 -9 14 15 16 17 0
2 -9 14 15 -16 -17 0
2 -9 14 -15 16 -17 0
2 -9 14 -15 -16 17 0
2 -9 -14 15 16 -17 0
2 -9 -14 15 -16 17 0
2 -9 -14 -15 16 17 0
2 -9 -14 -15 -16 -17 0
-2 9 14 15 16 17 0
-2 9 14 15 -16 -17 0
-2 9 14 -15 16 -17 0
-2 9 14 -15 -16 17 0
-2 9 -14 15 16 -17 0
-2 9 -14 15 -16 17 0
-2 9 -14 -15 16 17 0
-2 9 -14 -15 -16 -17 0
-2 -9 14 15 16 -17 0
-2 -9 14 15 -16 17 0
-2 -9 14 -15 16 17 0
-2 -9 14 -15 -16 -17 0
-2 -9 -14 15 16 17 0
-2 -9 -14 15 -16 -17 0
-2 -9 -14 -15 16 -17 0
-2 -9 -14 -15 -16 17 0
3 10 18 19 20 21 -22 0
3 10 18 19 20 -21 22 0
3 10 18 19 -20 21 22 0
3 10 18 19 -20 -21 -22 0
3 10 18 -19 20 21 22 0
3 10 18 -19 20 -21 -22 0
3 10 18 -19 -20 21 -22 0
3 10 18 -19 -20 -21 22 0
3 10 -18 19 20 21 22 0
3 10 -18 19 20 -21 -22 0
3 10 -18 19 -20 21 -22 0
3 10 -18 19 -20 -21 22 0
3 10 -18 -19 20 21 -22 0
3 10 -18 -19 20 -21 22 0
3 10 -18 -19 -20 21 22 0
3 10 -18 -19 -20 -21 -22 0
3 -10 18 19 20 21 22 0
3 -10 18 19 20 -21 -22 0
3 -10 18 19 -20 21 -22 0
3 -10 18 19 -20 -21 22 0
3 -10 18 -19 20 21 -22 0
3 -10 18 -19 20 -21 22 0
3 -10 18 -19 -20 21 22 0
3 -10 18 -19 -20 -21 -22 0
3 -10 -18 19 20 21 -22 0
3 -10 -18 19 20 -21 22 0
3 -10 -18 19 -20 21 22 0
3 -10 -18 19 -20 -21 -22 0
3 -10 -18 -19 20 21 22 0
3 -10 -18 -19 20 -21 -22 0
3 -10 -18 -19 -20 21 -22 0
3 -10 -18 -19 -20 -21 22 0
-3 10 18 19 20 21 22 0
-3 10 18 19 20 -21 -22 0
-3 10 18 19 -20 21 -22 0
-3 10 18 19 -20 -21 22 0
-3 10 18 -19 20 21 -22 0
-3 10 18 -19 20 -21 22 0
-3 10 18 -19 -20 21 22 0
-3 10 18 -19 -20 -21 -22 0
-3 10 -18 19 20 21 -22 0
-3 10 -18 19 20 -21 22 0
-3 10 -18 19 -20 21 22 0
-3 10 -18 19 -20 -21 -22 0
-3 10 -18 -19 20 21 22 0
-3 10 -18 -19 20 -21 -22 0
-3 10 -18 -19 -20 21 -22 0
-3 10 -18 -19 -20 -21 22 0
-3 -10 18 19 20 21 -22 0
-3 -10 18 19 20 -21 22 0
-3 -10 18 19 -20 21 22 0
-3 -10 18 19 -20 -21 -22 0
-3 -10 18 -19 20 21 22 0
-3 -10 18 -19 20 -21 -22 0
-3 -10 18 -19 -20 21 -22 0
-3 -10 18 -19 -20 -21 22 0
-3 -10 -18 19 20 21 22 0
-3 -10 -18 19 20 -21 -22 0
-3 -10 -18 19 -20 21 -22 0
-3 -10 -18 19 -20 -21 22 0
-3 -10 -18 -19 20 21 -22 0
-3 -10 -18 -19 20 -21 22 0
-3 -10 -18 -19 -20 21 22 0
-3 -10 -18 -19 -20 -21 -22 0
4 11 14 18 23 24 25 -26 0
4 11 14 18 23 24 -25 26 0
4 11 14 18 23 -24 25 26 0
4 11 14 18 23 -24 -25 -26 0
4 11 14 18 -23 24 25 26 0
4 11 14 18 -23 24 -25 -26 0
4 11 14 18 -23 -24 25 -26 0
4 11 14 18 -23 -24 -25 26 0
4 11 14 -18 23 24 25 26 0
4 11 14 -18 23 24 -25 -26 0
4 11 14 -18 23 -24 25 -26 0
4 11 14 -18 23 -24 -25 26 0
4 11 14 -18 -23 24 25 -26 0
4 11 14 -18 -23 24 -25 26 0
4 11 14 -18 -23 -24 25 26 0
4 11 14 -18 -23 -24 -25 -26 0
4 11 -14 18 23 24 25 26 0
4 11 -14 18 23 24 -25 -26 0
4 11 -14 18 23 -24 25 -26 0
4 11 -14 18 23 -24 -25 26 0
4 11 -14 18 -23 24 25 -26 0
4 11 -14 18 -23 24 -25 26 0
4 11 -14 18 -23 -24 25 26 0
4 11 -14 18 -23 -24 -25 -26 0
4 11 -14 -18 23 24 25 -26 0
4 11 -14 -18 23 24 -25 26 0
4 11 -14 -18 23 -24 25 26 0
4 11 -14 -18 23 -24 -25 -26 0
4 11 -14 -18 -23 24 25 26 0
4 11 -14 -18 -23 24 -25 -26 0
4 11 -14 -18 -23 -24 25 -26 0
4 11 -14 -18 -23 -24 -25 26 0
4 -11 14 18 23 24 25 26 0
4 -11 14 18 23 24 -25 -26 0
4 -11 14 18 23 -24 25 -26 0
4 -11 14 18 23 -24 -25 26 0
4 -11 14 18 -23 24 25 -26 0
4 -11 14 18 -23 24 -25 26 0
4 -11 14 18 -23 -24 25 26 0
4 -11 14 18 -23 -24 -25 -26 0
4 -11 14 -18 23 24 25 -26 0
4 -11 14 -18 23 24 -25 26 0
4 -11 14 -18 23 -24 25 26 0
4 -11 14 -18 23 -24 -25 -26 0
4 -11 14 -18 -23 24 25 26 0
4 -11 14 -18 -23 24 -25 -26 0
4 -11 14 -18 -23 -24 25 -26 0
4 -11 14 -18 -23 -24 -25 26 0
4 -11 -14 18 23 24 25 -26 0
4 -11 -14 18 23 24 -25 26 0
4 -11 -14 18 23 -24 25 26 0
4 -11 -14 18 23 -24 -25 -26 0
4 -11 -14 18 -23 24 25 26 0
4 -11 -14 18 -23 24 -25 -26 0
4 -11 -14 18 -23 -24 25 -26 0
4 -11 -14 18 -23 -24 -25 26 0
4 -11 -14 -18 23 24 25 26 0
4 -11 -14 -18 23 24 -25 -26 0
4 -11 -14 -18 23 -24 25 -26 0
4 -11 -14 -18 23 -24 -25 26 0
4 -11 -14 -18 -23 24 25 -26 0
4 -11 -14 -18 -23 24 -25 26 0
4 -11 -14 -18 -23 -24 25 26 0
4 -11 -14 -18 -23 -24 -25 -26 0
-4 11 14 18 23 24 25 26 0
-4 11 14 18 23 24 -25 -26 0
-4 11 14 18 23 -24 25 -26 0
-4 11 14 18 23 -24 -25 26 0
-4 11 14 18 -23 24 25 -26 0
-4 11 14 18 -23 24 -25 26 0
-4 11 14 18 -23 -24 25 26 0
-4 11 14 18 -23 -24 -25 -26 0
-4 11 14 -18 23 24 25 -26 0
-4 11 14 -18 23 24 -25 26 0
-4 11 14 -18 23 -24 25 26 0
-4 11 14 -18 23 -24 -25 -26 0
-4 11 14 -18 -23 24 25 26 0
-4 11 14 -18 -23 24 -25 -26 0
-4 11 14 -18 -23 -24 25 -26 0
-4 11 14 -18 -23 -24 -25 26 0
-4 11 -14 18 23 24 25 -26 0
-4 11 -14 18 23 24 -25 26 0
-4 11 -14 18 23 -24 25 26 0
-4 11 -14 18 23 -24 -25 -26 0
-4 11 -14 18 -23 24 25 26 0
-4 11 -14 18 -23 24 -25 -26 0
-4 11 -14 18 -23 -24 25 -26 0
-4 11 -14 18 -23 -24 -25 26 0
-4 11 -14 -18 23 24 25 26 0
-4 11 -14 -18 23 24 -25 -26 0
-4 11 -14 -18 23 -24 25 -26 0
-4 11 -14 -18 23 -24 -25 26 0
-4 11 -14 -18 -23 24 25 -26 0
-4 11 -14 -18 -23 24 -25 26 0
-4 11 -14 -18 -23 -24 25 26 0
-4 11 -14 -18 -23 -24 -25 -26 0
-4 -11 14 18 23 24 25 -26 0
-4 -11 14 18 23 24 -25 26 0
-4 -11 14 18 23 -24 25 26 0
-4 -11 14 18 23 -24 -25 -26 0
-4 -11 14 18 -23 24 25 26 0
-4 -11 14 18 -23 24 -25 -26 0
-4 -11 14 18 -23 -24 25 -26 0
-4 -11 14 18 -23 -24 -25 26 0
-4 -11 14 -18 23 24 25 26 0
-4 -11 14 -18 23 24 -25 -26 0
-4 -11 14 -18 23 -24 25 -26 0
-4 -11 14 -18 23 -24 -25 26 0
-4 -11 14 -18 -23 24 25 -26 0
-4 -11 14 -18 -23 24 -25 26 0
-4 -11 14 -18 -23 -24 25 26 0
-4 -11 14 -18 -23 -24 -25 -26 0
-4 -11 -14 18 23 24 25 26 0
-4 -11 -14 18 23 24 -25 -26 0
-4 -11 -14 18 23 -24 25 -26 0
-4 -11 -14 18 23 -24 -25 26 0
-4 -11 -14 18 -23 24 25 -26 0
-4 -11 -14 18 -23 24 -25 26 0
-4 -11 -14 18 -23 -24 25 26 0
-4 -11 -14 18 -23 -24 -25 -26 0
-4 -11 -14 -18 23 24 25 -26 0
-4 -11 -14 -18 23 24 -25 26 0
-4 -11 -14 -18 23 -24 25 26 0
-4 -11 -14 -18 23 -24 -25 -26 0
-4 -11 -14 -18 -23 24 25 26 0
-4 -11 -14 -18 -23 24 -25 -26 0
-4 -11 -14 -18 -23 -24 25 -26 0
-4 -11 -14 -18 -23 -24 -25 26 0
5 12 15 19 23 -27 0
5 12 15 19 -23 27 0
5 12 15 -19 23 27 0
5 12 15 -19 -23 -27 0
5 12 -15 19 23 27 0
5 12 -15 19 -23 -27 0
5 12 -15 -19 23 -27 0
5 12 -15 -19 -23 27 0
5 -12 15 19 23 27 0
5 -12 15 19 -23 -27 0
5 -12 15 -19 23 -27 0
5 -12 15 -19 -23 27 0
5 -12 -15 19 23 -27 0
5 -12 -15 19 -23 27 0
5 -12 -15 -19 23 27 0
5 -12 -15 -19 -23 -27 0
-5 12 15 19 23 27 0
-5 12 15 19 -23 -27 0
-5 12 15 -19 23 -27 0
-5 12 15 -19 -23 27 0
-5 12 -15 19 23 -27 0
-5 12 -15 19 -23 27 0
-5 12 -15 -19 23 27 0
-5 12 -15 -19 -23 -27 0
-5 -12 15 19 23 -27 0
-5 -12 15 19 -23 27 0
-5 -12 15 -19 23 27 0
-5 -12 15 -19 -23 -27 0
-5 -12 -15 19 23 27 0
-5 -12 -15 19 -23 -27 0
-5 -12 -15 -19 23 -27 0
-5 -12 -15 -19 -23 27 0
6 20 -28 0
6 -20 28 0
-6 20 28 0
-6 -20 -28 0
21 24 27 -29 0
21 24 -27 29 0
21 -24 27 29 0
21 -24 -27 -29 0
-21 24 27 29 0
-21 24 -27 -29 0
-21 -24 27 -29 0
-21 -24 -27 29 0
7 16 22 25 28 29 -30 0
7 16 22 25 28 -29 30 0
7 16 22 25 -28 29 30 0
7 16 22 25 -28 -29 -30 0
7 16 22 -25 28 29 30 0
7 16 22 -25 28 -29 -30 0
7 16 22 -25 -28 29 -30 0
7 16 22 -25 -28 -29 30 0
7 16 -22 25 28 29 30 0
7 16 -22 25 28 -29 -30 0
7 16 -22 25 -28 29 -30 0
7 16 -22 25 -28 -29 30 0
7 16 -22 -25 28 29 -30 0
7 16 -22 -25 28 -29 30 0
7 16 -22 -25 -28 29 30 0
7 16 -22 -25 -28 -29 -30 0
7 -16 22 25 28 29 30 0
7 -16 22 25 28 -29 -30 0
7 -16 22 25 -28 29 -30 0
7 -16 22 25 -28 -29 30 0
7 -16 22 -25 28 29 -30 0
7 -16 22 -25 28 -29 30 0
7 -16 22 -25 -28 29 30 0
7 -16 22 -25 -28 -29 -30 0
7 -16 -22 25 28 29 -30 0
7 -16 -22 25 28 -29 30 0
7 -16 -22 25 -28 29 30 0
7 -16 -22 25 -28 -29 -30 0
7 -16 -22 -25 28 29 30 0
7 -16 -22 -25 28 -29 -30 0
7 -16 -22 -25 -28 29 -30 0
7 -16 -22 -25 -28 -29 30 0
-7 16 22 25 28 29 30 0
-7 16 22 25 28 -29 -30 0
-7 16 22 25 -28 29 -30 0
-7 16 22 25 -28 -29 30 0
-7 16 22 -25 28 29 -30 0
-7 16 22 -25 28 -29 30 0
-7 16 22 -25 -28 29 30 0
-7 16 22 -25 -28 -29 -30 0
-7 16 -22 25 28 29 -30 0
-7 16 -22 25 28 -29 30 0
-7 16 -22 25 -28 29 30 0
-7 16 -22 25 -28 -29 -30 0
-7 16 -22 -25 28 29 30 0
-7 16 -22 -25 28 -29 -30 0
-7 16 -22 -25 -28 29 -30 0
-7 16 -22 -25 -28 -29 30 0
-7 -16 22 25 28 29 -30 0
-7 -16 22 25 28 -29 30 0
-7 -16 22 25 -28 29 30 0
-7 -16 22 25 -28 -29 -30 0
-7 -16 22 -25 28 29 30 0
-7 -16 22 -25 28 -29 -30 0
-7 -16 22 -25 -28 29 -30 0
-7 -16 22 -25 -28 -29 30 0
-7 -16 -22 25 28 29 30 0
-7 -16 -22 25 28 -29 -30 0
-7 -16 -22 25 -28 29 -30 0
-7 -16 -22 25 -28 -29 30 0
-7 -16 -22 -25 28 29 -30 0
-7 -16 -22 -25 28 -29 30 0
-7 -16 -22 -25 -28 29 30 0
-7 -16 -22 -25 -28 -29 -30 0
8 13 17 26 -30 0
8 13 17 -26 30 0
8 13 -17 26 30 0
8 13 -17 -26 -30 0
8 -13 17 26 30 0
8 -13 17 -26 -30 0
8 -13 -17 26 -30 0
8 -13 -17 -26 30 0
-8 13 17 26 30 0
-8 13 17 -26 -30 0
-8 13 -17 26 -30 0
-8 13 -17 -26 30 0
-8 -13 17 26 -30 0
-8 -13 17 -26 30 0
-8 -13 -17 26 30 0
-8 -13 -17 -26 -30 0